(set-logic ALL)
(set-option :produce-models true)
(declare-sort BoundSet 0)
(declare-sort UnboundSet 0)
(set-option :finite-model-find true)
(declare-fun IsRides (BoundSet) Bool)
(declare-fun IsHeldBy (BoundSet) Bool)
(declare-fun IsBicycle (BoundSet) Bool)
(declare-fun IsSittingOn (BoundSet) Bool)
(declare-fun IsGround (BoundSet) Bool)
(assert (not (=> (and (exists ((c BoundSet)) (exists ((a BoundSet)) (exists ((b BoundSet)) (and (IsRides a) (and (IsHeldBy b) (IsBicycle c)))))) (forall ((f BoundSet)) (forall ((g BoundSet)) (=> (IsRides f) (IsSittingOn g))))) (exists ((e BoundSet)) (exists ((d BoundSet)) (and (IsSittingOn d) (IsGround e)))))))
(check-sat)
(get-model)